# Solution for model cur_assignment
# Objective value = 7.2968843753516421e+02
Assign[0,0] 0
Assign[0,1] 1
Assign[1,0] 0
Assign[1,1] 1
Assign[2,0] 1
Assign[2,1] 0
Assign[3,0] 0
Assign[3,1] 1
Assign[4,0] 1
Assign[4,1] 0
Assign[5,0] 1
Assign[5,1] 0
Assign[6,0] 1
Assign[6,1] 0
Assign[7,0] 0
Assign[7,1] 1
Assign[8,0] 1
Assign[8,1] 0
Assign[9,0] 0
Assign[9,1] 1
Assign[10,0] 0
Assign[10,1] 1
Assign[11,0] 1
Assign[11,1] 0
Assign[12,0] 1
Assign[12,1] 0
Assign[13,0] 1
Assign[13,1] 0
Assign[14,0] 1
Assign[14,1] 0
Assign[15,0] 1
Assign[15,1] 0
Assign[16,0] 1
Assign[16,1] 0
Assign[17,0] 1
Assign[17,1] 0
Assign[18,0] 0
Assign[18,1] 1
Assign[19,0] 0
Assign[19,1] 1
Assign[20,0] 0
Assign[20,1] 1
Assign[21,0] 1
Assign[21,1] 0
Assign[22,0] 0
Assign[22,1] 1
Assign[23,0] 0
Assign[23,1] 1
Assign[24,0] 1
Assign[24,1] 0
Assign[25,0] 1
Assign[25,1] 0
Assign[26,0] 0
Assign[26,1] 1
Assign[27,0] 0
Assign[27,1] 1
Assign[28,0] 0
Assign[28,1] 1
Assign[29,0] 0
Assign[29,1] 1
Assign[30,0] 0
Assign[30,1] 1
Assign[31,0] 0
Assign[31,1] 1
Assign[32,0] 0
Assign[32,1] 1
Assign[33,0] 1
Assign[33,1] 0
Assign[34,0] 1
Assign[34,1] 0
Assign[35,0] 1
Assign[35,1] 0
Assign[36,0] 1
Assign[36,1] 0
Assign[37,0] 0
Assign[37,1] 1
Assign[38,0] 0
Assign[38,1] 1
